50

100 5 301
99 19 347
97 9 300
97 4 354
96 22 306
96 10 294
95 29 327
92 21 340
92 10 321
90 2 319
90 12 272
88 21 281
87 7 346
87 15 337
85 26 270
84 12 290
83 4 331
82 14 294
81 14 337
79 20 319
74 9 253
68 17 304
68 4 291
63 14 338
59 9 352
58 14 265
56 2 276
55 3 275
55 3 245
51 12 353
50 3 334
49 8 314
49 13 294
49 5 359
47 3 177
44 2 350
44 7 142
42 1 183
39 7 342
37 8 219
37 2 144
34 8 356
34 2 202
34 7 346
33 9 315
33 8 163
31 4 246
30 9 139
30 8 205
30 4 315
